50 998
647 683 625 809 714 1198 234 504 695 943 600 232 912 735 636 1009 935 799 627 1266 1254 1080 877 1029 570 403 657 220 723 877 790 325 389 456 480 654 1146 744 1151 1176 717 318 802 864 539 396 1109 1017 309 430 
447 483 425 609 514 998 34 304 495 743 400 32 612 535 336 809 735 599 427 966 954 780 677 829 370 203 457 20 523 677 590 125 189 156 180 354 946 444 951 976 517 18 602 664 339 96 909 817 109 230 
